NAME: random-100-12374
TYPE: TSP
COMMENT: size=100 seed=12374
DIMENSION: 202
EDGE_WEIGHT_TYPE: EUC_2D
NODE_COORD_SECTION
+0 818 457
-0 818 457
+1 796 5
-1 902 572
+2 167 611
-2 545 441
+3 554 439
-3 471 684
+4 610 181
-4 792 819
+5 567 0
-5 477 807
+6 350 502
-6 387 95
+7 75 918
-7 470 67
+8 679 69
-8 64 275
+9 430 453
-9 385 614
+10 426 102
-10 508 330
+11 923 977
-11 967 325
+12 578 718
-12 226 805
+13 318 609
-13 917 440
+14 436 75
-14 470 119
+15 510 510
-15 290 267
+16 998 558
-16 827 658
+17 903 878
-17 287 703
+18 574 233
-18 425 127
+19 541 971
-19 916 296
+20 789 659
-20 434 228
+21 637 447
-21 100 624
+22 225 687
-22 717 872
+23 949 771
-23 90 888
+24 731 474
-24 8 276
+25 118 348
-25 963 390
+26 644 661
-26 782 855
+27 345 400
-27 579 821
+28 916 863
-28 533 359
+29 636 322
-29 611 477
+30 365 459
-30 217 470
+31 926 431
-31 827 924
+32 258 725
-32 483 514
+33 248 438
-33 80 395
+34 529 513
-34 499 413
+35 266 960
-35 5 367
+36 335 934
-36 522 416
+37 297 776
-37 101 528
+38 857 569
-38 146 860
+39 237 714
-39 746 885
+40 300 179
-40 463 775
+41 915 577
-41 61 877
+42 456 897
-42 443 883
+43 182 483
-43 943 220
+44 943 329
-44 572 627
+45 715 546
-45 905 970
+46 617 29
-46 881 828
+47 537 236
-47 199 812
+48 327 158
-48 6 523
+49 224 751
-49 854 860
+50 581 547
-50 474 681
+51 957 197
-51 84 187
+52 693 897
-52 830 216
+53 635 777
-53 456 729
+54 716 924
-54 95 58
+55 229 720
-55 879 742
+56 789 836
-56 9 761
+57 501 300
-57 170 29
+58 846 882
-58 286 512
+59 316 817
-59 0 510
+60 491 843
-60 875 537
+61 16 549
-61 963 92
+62 879 772
-62 127 142
+63 49 878
-63 471 830
+64 7 7
-64 861 433
+65 222 512
-65 23 203
+66 355 272
-66 234 866
+67 697 113
-67 604 922
+68 672 587
-68 28 720
+69 388 43
-69 831 423
+70 224 508
-70 865 676
+71 203 973
-71 616 188
+72 280 790
-72 416 949
+73 894 888
-73 348 739
+74 144 537
-74 106 226
+75 917 324
-75 872 698
+76 994 962
-76 604 822
+77 611 761
-77 878 772
+78 780 499
-78 459 878
+79 328 914
-79 137 968
+80 545 808
-80 574 264
+81 202 608
-81 27 459
+82 324 755
-82 592 595
+83 637 433
-83 356 847
+84 611 744
-84 185 304
+85 656 571
-85 897 499
+86 72 582
-86 100 773
+87 324 559
-87 109 235
+88 898 22
-88 114 912
+89 241 452
-89 805 167
+90 342 100
-90 687 950
+91 927 679
-91 925 665
+92 439 701
-92 113 89
+93 582 359
-93 209 357
+94 418 726
-94 894 621
+95 859 146
-95 152 864
+96 954 750
-96 469 686
+97 601 961
-97 206 859
+98 322 358
-98 608 811
+99 651 789
-99 334 186
+100 195 576
-100 841 635
PRECEDENCE_SECTION
+0 -0
+1 -1
+2 -2
+3 -3
+4 -4
+5 -5
+6 -6
+7 -7
+8 -8
+9 -9
+10 -10
+11 -11
+12 -12
+13 -13
+14 -14
+15 -15
+16 -16
+17 -17
+18 -18
+19 -19
+20 -20
+21 -21
+22 -22
+23 -23
+24 -24
+25 -25
+26 -26
+27 -27
+28 -28
+29 -29
+30 -30
+31 -31
+32 -32
+33 -33
+34 -34
+35 -35
+36 -36
+37 -37
+38 -38
+39 -39
+40 -40
+41 -41
+42 -42
+43 -43
+44 -44
+45 -45
+46 -46
+47 -47
+48 -48
+49 -49
+50 -50
+51 -51
+52 -52
+53 -53
+54 -54
+55 -55
+56 -56
+57 -57
+58 -58
+59 -59
+60 -60
+61 -61
+62 -62
+63 -63
+64 -64
+65 -65
+66 -66
+67 -67
+68 -68
+69 -69
+70 -70
+71 -71
+72 -72
+73 -73
+74 -74
+75 -75
+76 -76
+77 -77
+78 -78
+79 -79
+80 -80
+81 -81
+82 -82
+83 -83
+84 -84
+85 -85
+86 -86
+87 -87
+88 -88
+89 -89
+90 -90
+91 -91
+92 -92
+93 -93
+94 -94
+95 -95
+96 -96
+97 -97
+98 -98
+99 -99
+100 -100
EOF
